10
0, 407, 684, 473, 566, 332, 213, 751, 514, 970
407, 0, 806, 225, 344, 483, 605, 811, 791, 1063
684, 806, 0, 1008, 583, 363, 611, 123, 318, 285
473, 225, 1008, 0, 567, 662, 687, 1025, 945, 1275
566, 344, 583, 567, 0, 400, 687, 544, 701, 791
332, 483, 363, 662, 400, 0, 334, 419, 319, 647
213, 605, 611, 687, 687, 334, 0, 706, 361, 888
751, 811, 123, 1025, 544, 419, 706, 0, 438, 252
514, 791, 318, 945, 701, 319, 361, 438, 0, 557
970, 1063, 285, 1275, 791, 647, 888, 252, 557, 0
